letting n =  10
letting blocks =  [[1, 1], [1, 2], [1, 4], [1, 5], [1, 6], [1, 8], [2, 1], [2, 3], [2, 5], [2, 6], [2, 9], [2, 10], [3, 1], [3, 2], [3, 3], [3, 9], [3, 10], [4, 3], [4, 4], [4, 5], [4, 6], [4, 7], [4, 10], [5, 1], [5, 4], [5, 7], [5, 8], [5, 9], [5, 10], [6, 1], [6, 2], [6, 4], [6, 6], [6, 7], [6, 8], [7, 3], [7, 6], [7, 7], [7, 8], [7, 9], [7, 10], [8, 2], [8, 3], [8, 5], [8, 8], [8, 9], [9, 2], [9, 4], [9, 5], [9, 7], [9, 9], [9, 10], [10, 1], [10, 2], [10, 3], [10, 4], [10, 7], [10, 8]]
